
Gurobi 10.0.3 (linux64, gurobi_cl) logging started Thu Nov  9 11:52:18 2023

Set parameter Username
Set parameter TimeLimit to value 3600
Set parameter LogFile to value "RCPSP_1294.log"
Set parameter Threads to value 32
Academic license - for non-commercial use only - expires 2024-11-06
Using license file /home/jrivera6/gurobi-licenses/v1003/compute-0-36/gurobi.lic

Gurobi Optimizer version 10.0.3 build v10.0.3rc0 (linux64)
Copyright (c) 2023, Gurobi Optimization, LLC

Read MPS format model from file RCPSP_1294.mps
Reading time = 0.07 seconds
RCPSP_1294: 42975 rows, 17020 columns, 134609 nonzeros

CPU model: Intel(R) Xeon(R) Gold 6130 CPU @ 2.10GHz, instruction set [SSE2|AVX|AVX2|AVX512]
Thread count: 32 physical cores, 32 logical processors, using up to 32 threads

Optimize a model with 42975 rows, 17020 columns and 134609 nonzeros
Model fingerprint: 0x6609a050
Variable types: 92 continuous, 16928 integer (16928 binary)
Coefficient statistics:
  Matrix range     [1e+00, 5e+02]
  Objective range  [1e+00, 1e+00]
  Bounds range     [1e+00, 1e+00]
  RHS range        [1e+00, 5e+02]
Presolve removed 7368 rows and 1349 columns (presolve time = 5s) ...
Presolve removed 9807 rows and 2651 columns
Presolve time: 7.15s
Presolved: 33168 rows, 14369 columns, 107471 nonzeros
Variable types: 91 continuous, 14278 integer (14278 binary)

Deterministic concurrent LP optimizer: primal and dual simplex (primal and dual model)
Showing first log only...

Root relaxation presolved: 33168 rows, 14369 columns, 107471 nonzeros


Root simplex log...

Iteration    Objective       Primal Inf.    Dual Inf.      Time
       0    7.8321817e+01   5.618049e-02   3.603848e+08      8s
Concurrent spin time: 0.28s

Solved with dual simplex (primal model)

Root relaxation: objective 7.600000e+01, 4760 iterations, 1.15 seconds (0.10 work units)
Total elapsed time = 10.20s

    Nodes    |    Current Node    |     Objective Bounds      |     Work
 Expl Unexpl |  Obj  Depth IntInf | Incumbent    BestBd   Gap | It/Node Time

     0     0   76.00000    0   35          -   76.00000      -     -   12s
     0     0   76.00000    0  278          -   76.00000      -     -   24s
     0     0   76.00000    0  244          -   76.00000      -     -   24s
     0     0   76.00000    0  244          -   76.00000      -     -   25s
     0     0   76.00000    0   93          -   76.00000      -     -   33s
     0     0   76.00000    0  161          -   76.00000      -     -   39s
     0     0   76.00000    0  151          -   76.00000      -     -   47s
     0     0   76.00000    0  150          -   76.00000      -     -   48s
     0     0   76.00000    0  145          -   76.00000      -     -   48s
     0     0   76.00000    0  160          -   76.00000      -     -   50s
     0     0   76.00000    0  156          -   76.00000      -     -   50s
     0     0   76.00000    0  156          -   76.00000      -     -   50s
     0     0   76.00000    0  129          -   76.00000      -     -   54s
     0     0   76.00000    0  164          -   76.00000      -     -   54s
     0     0   76.00000    0  155          -   76.00000      -     -   54s
     0     0   76.00038    0  115          -   76.00038      -     -   58s
     0     0   76.04045    0  215          -   76.04045      -     -   63s
     0     0   76.04045    0  145          -   76.04045      -     -   63s
H    0     0                     497.0000000   76.04045  84.7%     -   64s
     0     0   76.04674    0  337  497.00000   76.04674  84.7%     -   64s
     0     0   76.04674    0   30  497.00000   76.04674  84.7%     -  106s
     0     0   76.04674    0  378  497.00000   76.04674  84.7%     -  111s
     0     0   76.04674    0  348  497.00000   76.04674  84.7%     -  122s
H    0     0                     401.0000000   76.04674  81.0%     -  125s
     0     0   76.04674    0   51  401.00000   76.04674  81.0%     -  126s
H    0     0                     326.0000000   76.04674  76.7%     -  131s
     0     0   76.04674    0  149  326.00000   76.04674  76.7%     -  132s
     0     0   76.13514    0  183  326.00000   76.13514  76.6%     -  134s
     0     0   76.20000    0  482  326.00000   76.20000  76.6%     -  134s
     0     0   76.20000    0  357  326.00000   76.20000  76.6%     -  137s
     0     0   76.20000    0  350  326.00000   76.20000  76.6%     -  137s
     0     0   76.20000    0  425  326.00000   76.20000  76.6%     -  137s
     0     0   76.20000    0  423  326.00000   76.20000  76.6%     -  138s
     0     0   76.20000    0  421  326.00000   76.20000  76.6%     -  138s
     0     0   76.20000    0  375  326.00000   76.20000  76.6%     -  140s
     0     0   76.20000    0  355  326.00000   76.20000  76.6%     -  140s
     0     0   76.20000    0   60  326.00000   76.20000  76.6%     -  146s
     0     0   76.20000    0  205  326.00000   76.20000  76.6%     -  148s
     0     0   76.20000    0  137  326.00000   76.20000  76.6%     -  153s
     0     0   76.20000    0  287  326.00000   76.20000  76.6%     -  154s
H    0     0                     287.0000000   76.20000  73.4%     -  158s
     0     0   76.20000    0   27  287.00000   76.20000  73.4%     -  158s
H    0     0                     249.0000000   76.20000  69.4%     -  162s
     0     0   76.20000    0   53  249.00000   76.20000  69.4%     -  162s
     0     0   76.20000    0   27  249.00000   76.20000  69.4%     -  164s
     0     0   76.20000    0  312  249.00000   76.20000  69.4%     -  165s
     0     0   76.20000    0  301  249.00000   76.20000  69.4%     -  165s
     0     0   76.22099    0  181  249.00000   76.22099  69.4%     -  168s
     0     0   76.22305    0  203  249.00000   76.22305  69.4%     -  169s
     0     0   76.22791    0  282  249.00000   76.22791  69.4%     -  171s
     0     0   76.22791    0  320  249.00000   76.22791  69.4%     -  172s
     0     0   76.22791    0  313  249.00000   76.22791  69.4%     -  173s
     0     0   76.24221    0  295  249.00000   76.24221  69.4%     -  176s
     0     0   76.24221    0  285  249.00000   76.24221  69.4%     -  176s
H    0     0                     232.0000000   76.24221  67.1%     -  190s
     0     0   76.24224    0  171  232.00000   76.24224  67.1%     -  190s
     0     0   76.24457    0  458  232.00000   76.24457  67.1%     -  192s
     0     0   76.24457    0  313  232.00000   76.24457  67.1%     -  193s
     0     0   76.24457    0  299  232.00000   76.24457  67.1%     -  193s
     0     0   76.24600    0  416  232.00000   76.24600  67.1%     -  195s
     0     0   76.24600    0  400  232.00000   76.24600  67.1%     -  195s
H    0     0                     209.0000000   76.24600  63.5%     -  197s
     0     0   76.24600    0  389  209.00000   76.24600  63.5%     -  198s
     0     0   76.24600    0  393  209.00000   76.24600  63.5%     -  200s
     0     0   76.24600    0  388  209.00000   76.24600  63.5%     -  200s
     0     0   76.24600    0  349  209.00000   76.24600  63.5%     -  201s
     0     0   76.24600    0   58  209.00000   76.24600  63.5%     -  204s
     0     0   76.24600    0   52  209.00000   76.24600  63.5%     -  204s
     0     0   76.24600    0   57  209.00000   76.24600  63.5%     -  205s
     0     0   76.24715    0  103  209.00000   76.24715  63.5%     -  208s
     0     0   76.24715    0   94  209.00000   76.24715  63.5%     -  209s
     0     0   76.24715    0  157  209.00000   76.24715  63.5%     -  214s
     0     0   76.24715    0  216  209.00000   76.24715  63.5%     -  217s
     0     0   76.27840    0   69  209.00000   76.27840  63.5%     -  227s
     0     0   76.27968    0  213  209.00000   76.27968  63.5%     -  231s
     0     0   76.31452    0  184  209.00000   76.31452  63.5%     -  238s
     0     0   76.31611    0  184  209.00000   76.31611  63.5%     -  240s
     0     0   76.31611    0  292  209.00000   76.31611  63.5%     -  245s
H    0     0                     196.0000000   76.31611  61.1%     -  257s
     0     0   76.31611    0  270  196.00000   76.31611  61.1%     -  270s
     0     0   76.31611    0  420  196.00000   76.31611  61.1%     -  275s
     0     0   76.31611    0  326  196.00000   76.31611  61.1%     -  275s
     0     0   76.31611    0  309  196.00000   76.31611  61.1%     -  275s
     0     0   76.31611    0  356  196.00000   76.31611  61.1%     -  280s
     0     0   76.31611    0  258  196.00000   76.31611  61.1%     -  280s
     0     0   76.31611    0  103  196.00000   76.31611  61.1%     -  288s
     0     0   76.31611    0  139  196.00000   76.31611  61.1%     -  291s
     0     0   76.31611    0   70  196.00000   76.31611  61.1%     -  295s
H    0     0                     178.0000000   76.31611  57.1%     -  297s
     0     0   76.31611    0  292  178.00000   76.31611  57.1%     -  298s
     0     0   76.31611    0   82  178.00000   76.31611  57.1%     -  300s
     0     0   76.31611    0   46  178.00000   76.31611  57.1%     -  308s
     0     2   76.31611    0   46  178.00000   76.31611  57.1%     -  317s
     1     4   76.32645    1   45  178.00000   76.32645  57.1%  1824  323s
     3     8   80.00000    2  248  178.00000   76.34665  57.1%   781  334s
     6     8   79.00000    2  278  178.00000   76.46746  57.0%   559  335s
     7    16   81.00000    3  188  178.00000   76.46746  57.0%   489  345s
    15    30   84.00000    4  200  178.00000   76.53846  57.0%   423  356s
H   31    55                     174.0000000   77.00000  55.7%   483  966s
H   31    55                     167.0000000   77.00000  53.9%   483  970s
H   32    55                     165.0000000   77.00000  53.3%   476  972s
H   34    55                     164.0000000   77.00000  53.0%   462  977s
H   38    55                     163.0000000   77.00000  52.8%   435  980s
H   38    55                     162.0000000   77.00000  52.5%   435  982s
H   47    55                     155.0000000   77.00000  50.3%   444  985s
H   60    55                     152.0000000   77.00000  49.3%   467  988s
    61    79   84.00000    6  228  152.00000   77.00000  49.3%   476 1027s
H   93   105                     148.0000000   77.00000  48.0%   419 1094s
    99   105   80.00000    7  246  148.00000   77.00000  48.0%   414 1095s
   125   127   84.00000    8  216  148.00000   77.00000  48.0%   348 1208s
   140   127   87.00000    8  430  148.00000   77.00000  48.0%   314 1210s
H  157   148                     109.0000000   77.00000  29.4%   286 2518s
H  158   148                     103.0000000   77.00000  25.2%   284 2521s
   164   148   87.00000    9  359  103.00000   77.00000  25.2%   275 2542s
   175   148   91.00000    9  504  103.00000   77.00000  25.2%   262 2628s
H  188   148                     100.0000000   77.00000  23.0%   247 2727s
   189   178   84.00000   10  224  100.00000   77.00000  23.0%   245 3862s

Cutting planes:
  Gomory: 8
  Cover: 47
  Implied bound: 446
  Clique: 1
  MIR: 1203
  StrongCG: 17
  Zero half: 2
  Mod-K: 1
  RLT: 645
  Relax-and-lift: 446

Explored 253 nodes (160635 simplex iterations) in 3909.83 seconds (71.23 work units)
Thread count was 32 (of 32 available processors)

Solution count 10: 100 103 109 ... 165

Time limit reached
Best objective 1.000000000000e+02, best bound 7.700000000000e+01, gap 23.0000%

Wrote result file 'RCPSP_1294.sol'

